proyfinal/src/viki/013/experimentInOfficeAgust.take6.output/81e4bb12-62f6-47c5-b7a7-78097f4c6bfb.als.dat
{'cnf.clauses': '118081',
 'cnf.totvars': '69608',
 'conflict literals': '1',
 'conflicts': '2',
 'decisions': '1155',
 'memused.mb': '15.70',
 'outcome': 'UNSAT',
 'propagations': '18718',
 'restarts': '1',
 'solver.msecs': 31,
 'task.msecs': 80}
