proyfinal/src/viki/013/experimentInOfficeAgust.take6.output/81e4bb12-62f6-47c5-b7a7-78097f4c6bfb.als.out
Reading from standard input... Use '--help' for help.
============================[ Problem Statistics ]=============================
|                                                                             |
|  Number of variables:         69608                                         |
|  Number of clauses:          118081                                         |
|  Parse time:                   0.02 s                                       |
|                                                                             |
============================[ Search Statistics ]==============================
| Conflicts |          ORIGINAL         |          LEARNT          | Progress |
|           |    Vars  Clauses Literals |    Limit  Clauses Lit/Cl |          |
===============================================================================
===============================================================================
restarts              : 1
conflicts             : 2              (63 /sec)
decisions             : 1155           (0.00 % random) (36256 /sec)
propagations          : 18718          (587563 /sec)
conflict literals     : 1              (0.00 % deleted)
Memory used           : 15.70 MB
CPU time              : 0.031857 s

UNSATISFIABLE
